Please solve the following SAT Problem encoded in DIMACS format, only return a single solution assignment without explanations, if there is any: 
p cnf 10 45
9 1 3 0
-5 2 10 0
-7 1 2 0
8 -5 2 0
4 -10 3 0
3 1 8 0
2 -6 -7 0
8 -10 5 0
-1 3 -10 0
-10 -5 3 0
4 -10 -6 0
-6 -9 4 0
-7 -9 4 0
4 -1 -6 0
4 -3 8 0
2 1 -6 0
-9 -3 -1 0
9 2 -7 0
-2 -7 -10 0
8 -5 -10 0
4 3 10 0
-6 2 -1 0
8 -6 5 0
8 10 -9 0
3 -7 4 0
-6 5 -10 0
8 -10 -1 0
-1 -7 -10 0
4 -1 2 0
8 -5 -7 0
-3 4 -9 0
-8 -10 -7 0
-5 3 -6 0
-6 2 -5 0
-7 -9 -10 0
-4 -6 -10 0
6 -10 3 0
-7 3 -5 0
3 -1 -7 0
9 -5 -7 0
-10 3 2 0
-6 -10 -9 0
6 8 -1 0
3 -7 -6 0
3 -1 -5 0

